4952963
100,181,172,112,193,124,44,71,103,24,118,46,83,192,209,10,164,182,6,0,188,139,31,154,37,58,140,221,91,218,212,41,133,20,128,111,27,183,166,79,3,195,168,88,80,86,180,146,21,157,11,225,99,174,189,17,65,223,144,211,109,173,81,60,199,131,53,201,23,215,52,30,224,147,42,47,102,14,34,114,55,33,169,89,185,49,176,161,62,165,13,148,93,204,127,51,158,59,120,149,141,77,126,56,110,145,4,48,125,16,170,186,216,32,104,107,226,57,207,198,187,61,39,214,129,151,136,203,50,119,35,97,156,142,167,28,106,116,9,45,190,64,122,78,22,162,85,12,134,220,137,121,74,206,2,68,177,178,19,210,87,113,229,94,143,84,202,213,135,208,92,196,219,163,130,194,200,75,175,95,123,38,228,5,132,101,36,160,159,7,54,26,191,227,105,98,76,179,96,15,73,217,171,222,43,40,90,184,205,18,153,150,63,155,115,197,8,138,67,25,69,1,29,66,70,108,152,82,117,72